
Gurobi 6.0.5 (linux64) logging started Thu Oct  8 21:40:26 2015

Set parameter Presolve to value 2
Set parameter MIPGap to value 0.05
Set parameter OutputFlag to value 1
Set parameter Threads to value 1

Gurobi 6.0.5 (linux64) logging started Thu Oct  8 22:07:44 2015

Set parameter Presolve to value 2
Set parameter MIPGap to value 0.05
Set parameter OutputFlag to value 1
Set parameter Threads to value 1

Gurobi 6.0.5 (linux64) logging started Thu Oct  8 22:07:47 2015

Set parameter Presolve to value 2
Set parameter MIPGap to value 0.05
Set parameter OutputFlag to value 1
Set parameter Threads to value 1

Gurobi 6.0.5 (linux64) logging started Thu Oct  8 22:17:48 2015

Set parameter Presolve to value 2
Set parameter MIPGap to value 0.05
Set parameter OutputFlag to value 1
Set parameter Threads to value 1

Gurobi 6.0.5 (linux64) logging started Thu Oct  8 22:44:06 2015

Set parameter Presolve to value 2
Set parameter MIPGap to value 0.05
Set parameter OutputFlag to value 1
Set parameter Threads to value 1

Gurobi 6.0.5 (linux64) logging started Thu Oct  8 22:53:06 2015

Set parameter Presolve to value 2
Set parameter MIPGap to value 0.05
Set parameter OutputFlag to value 1
Set parameter Threads to value 1

Gurobi 6.0.5 (linux64) logging started Thu Oct  8 22:54:39 2015

Set parameter Presolve to value 2
Set parameter MIPGap to value 0.05
Set parameter OutputFlag to value 1
Set parameter Threads to value 1

Gurobi 6.0.5 (linux64) logging started Thu Oct  8 23:04:37 2015

Set parameter Presolve to value 2
Set parameter MIPGap to value 0.05
Set parameter OutputFlag to value 1
Set parameter Threads to value 1

Gurobi 6.0.5 (linux64) logging started Fri Oct  9 09:14:54 2015

Set parameter Presolve to value 2
Set parameter MIPGap to value 0.05
Set parameter OutputFlag to value 1
Set parameter Threads to value 1

Gurobi 6.0.5 (linux64) logging started Fri Oct  9 09:17:47 2015

Set parameter Presolve to value 2
Set parameter MIPGap to value 0.05
Set parameter OutputFlag to value 1
Set parameter Threads to value 1

Gurobi 6.0.5 (linux64) logging started Fri Oct  9 09:19:00 2015

Set parameter Presolve to value 2
Set parameter MIPGap to value 0.05
Set parameter OutputFlag to value 1
Set parameter Threads to value 1

Gurobi 6.0.5 (linux64) logging started Fri Oct  9 09:19:33 2015

Set parameter Presolve to value 2
Set parameter MIPGap to value 0.05
Set parameter OutputFlag to value 1
Set parameter Threads to value 1

Gurobi 6.0.5 (linux64) logging started Fri Oct  9 09:19:48 2015

Set parameter Presolve to value 2
Set parameter MIPGap to value 0.05
Set parameter OutputFlag to value 1
Set parameter Threads to value 1

Gurobi 6.0.5 (linux64) logging started Fri Oct  9 09:24:29 2015

Set parameter Presolve to value 2
Set parameter MIPGap to value 0.05
Set parameter OutputFlag to value 1
Set parameter Threads to value 1

Gurobi 6.0.5 (linux64) logging started Fri Oct  9 09:24:31 2015

Set parameter Presolve to value 2
Set parameter MIPGap to value 0.05
Set parameter OutputFlag to value 1
Set parameter Threads to value 1

Gurobi 6.0.5 (linux64) logging started Fri Oct  9 09:29:44 2015

Set parameter Presolve to value 2
Set parameter MIPGap to value 0.05
Set parameter OutputFlag to value 1
Set parameter Threads to value 1

Gurobi 6.0.5 (linux64) logging started Fri Oct  9 09:44:34 2015

Set parameter Presolve to value 2
Set parameter MIPGap to value 0.05
Set parameter OutputFlag to value 1
Set parameter Threads to value 1

Gurobi 6.0.5 (linux64) logging started Fri Oct  9 09:57:58 2015

Set parameter Presolve to value 2
Set parameter MIPGap to value 0.05
Set parameter OutputFlag to value 1
Set parameter Threads to value 1

Gurobi 6.0.5 (linux64) logging started Fri Oct  9 11:37:13 2015

Set parameter Presolve to value 2
Set parameter MIPGap to value 0.05
Set parameter OutputFlag to value 1
Set parameter Threads to value 1

Gurobi 6.0.5 (linux64) logging started Fri Oct  9 11:37:40 2015

Set parameter Presolve to value 2
Set parameter MIPGap to value 0.05
Set parameter OutputFlag to value 1
Set parameter Threads to value 1

Gurobi 6.0.5 (linux64) logging started Fri Oct  9 11:43:02 2015

Set parameter Presolve to value 2
Set parameter MIPGap to value 0.05
Set parameter OutputFlag to value 1
Set parameter Threads to value 1

Gurobi 6.0.5 (linux64) logging started Fri Oct  9 11:43:56 2015

Set parameter Presolve to value 2
Set parameter MIPGap to value 0.05
Set parameter OutputFlag to value 1
Set parameter Threads to value 1

Gurobi 6.0.5 (linux64) logging started Fri Oct  9 11:44:04 2015

Set parameter Presolve to value 2
Set parameter MIPGap to value 0.05
Set parameter OutputFlag to value 1
Set parameter Threads to value 1

Gurobi 6.0.5 (linux64) logging started Fri Oct  9 11:48:33 2015

Set parameter Presolve to value 2
Set parameter MIPGap to value 0.05
Set parameter OutputFlag to value 1
Set parameter Threads to value 1

Gurobi 6.0.5 (linux64) logging started Fri Oct  9 11:49:59 2015

Set parameter Presolve to value 2
Set parameter MIPGap to value 0.05
Set parameter OutputFlag to value 1
Set parameter Threads to value 1

Gurobi 6.0.5 (linux64) logging started Fri Oct  9 11:52:28 2015

Set parameter Presolve to value 2
Set parameter MIPGap to value 0.05
Set parameter OutputFlag to value 1
Set parameter Threads to value 1

Gurobi 6.0.5 (linux64) logging started Fri Oct  9 11:52:33 2015

Set parameter Presolve to value 2
Set parameter MIPGap to value 0.05
Set parameter OutputFlag to value 1
Set parameter Threads to value 1

Gurobi 6.0.5 (linux64) logging started Fri Oct  9 11:54:21 2015

Set parameter Presolve to value 2
Set parameter MIPGap to value 0.05
Set parameter OutputFlag to value 1
Set parameter Threads to value 1

Gurobi 6.0.5 (linux64) logging started Fri Oct  9 11:55:28 2015

Set parameter Presolve to value 2
Set parameter MIPGap to value 0.05
Set parameter OutputFlag to value 1
Set parameter Threads to value 1

Gurobi 6.0.5 (linux64) logging started Fri Oct  9 12:06:30 2015

Set parameter Presolve to value 2
Set parameter MIPGap to value 0.05
Set parameter OutputFlag to value 1
Set parameter Threads to value 1

Gurobi 6.0.5 (linux64) logging started Fri Oct  9 12:54:55 2015

Set parameter Presolve to value 2
Set parameter MIPGap to value 0.05
Set parameter OutputFlag to value 1
Set parameter Threads to value 1

Gurobi 6.0.5 (linux64) logging started Fri Oct  9 12:55:25 2015

Set parameter Presolve to value 2
Set parameter MIPGap to value 0.05
Set parameter OutputFlag to value 1
Set parameter Threads to value 1

Gurobi 6.0.5 (linux64) logging started Fri Oct  9 12:56:08 2015

Set parameter Presolve to value 2
Set parameter MIPGap to value 0.05
Set parameter OutputFlag to value 1
Set parameter Threads to value 1

Gurobi 6.0.5 (linux64) logging started Fri Oct  9 13:58:59 2015

Set parameter Presolve to value 2
Set parameter MIPGap to value 0.05
Set parameter OutputFlag to value 1
Set parameter Threads to value 1

Gurobi 6.0.5 (linux64) logging started Fri Oct  9 13:59:01 2015

Set parameter Presolve to value 2
Set parameter MIPGap to value 0.05
Set parameter OutputFlag to value 1
Set parameter Threads to value 1

Gurobi 6.0.5 (linux64) logging started Fri Oct  9 13:59:01 2015

Set parameter Presolve to value 2
Set parameter MIPGap to value 0.05
Set parameter OutputFlag to value 1
Set parameter Threads to value 1

Gurobi 6.0.5 (linux64) logging started Fri Oct  9 14:08:00 2015

Set parameter Presolve to value 2
Set parameter MIPGap to value 0.05
Set parameter OutputFlag to value 1
Set parameter Threads to value 1

Gurobi 6.0.5 (linux64) logging started Fri Oct  9 14:08:00 2015

Set parameter Presolve to value 2
Set parameter MIPGap to value 0.05
Set parameter OutputFlag to value 1
Set parameter Threads to value 1

Gurobi 6.0.5 (linux64) logging started Fri Oct  9 14:09:13 2015

Set parameter Presolve to value 2
Set parameter MIPGap to value 0.05
Set parameter OutputFlag to value 1
Set parameter Threads to value 1

Gurobi 6.0.5 (linux64) logging started Fri Oct  9 14:13:40 2015

Set parameter Presolve to value 2
Set parameter MIPGap to value 0.05
Set parameter OutputFlag to value 1
Set parameter Threads to value 1

Gurobi 6.0.5 (linux64) logging started Fri Oct  9 14:35:06 2015

Set parameter Presolve to value 2
Set parameter MIPGap to value 0.05
Set parameter OutputFlag to value 1
Set parameter Threads to value 1

Gurobi 6.0.5 (linux64) logging started Fri Oct  9 14:35:50 2015

Set parameter Presolve to value 2
Set parameter MIPGap to value 0.05
Set parameter OutputFlag to value 1
Set parameter Threads to value 1

Gurobi 6.0.5 (linux64) logging started Fri Oct  9 14:37:18 2015

Set parameter Presolve to value 2
Set parameter MIPGap to value 0.05
Set parameter OutputFlag to value 1
Set parameter Threads to value 1

Gurobi 6.0.5 (linux64) logging started Fri Oct  9 14:57:15 2015

Set parameter Presolve to value 2
Set parameter MIPGap to value 0.05
Set parameter OutputFlag to value 1
Set parameter Threads to value 1

Gurobi 6.0.5 (linux64) logging started Fri Oct  9 14:57:15 2015

Set parameter Presolve to value 2
Set parameter MIPGap to value 0.05
Set parameter OutputFlag to value 1
Set parameter Threads to value 1

Gurobi 6.0.5 (linux64) logging started Fri Oct  9 14:57:15 2015

Set parameter Presolve to value 2
Set parameter MIPGap to value 0.05
Set parameter OutputFlag to value 1
Set parameter Threads to value 1

Gurobi 6.0.5 (linux64) logging started Fri Oct  9 15:00:24 2015

Set parameter Presolve to value 2
Set parameter MIPGap to value 0.05
Set parameter OutputFlag to value 1
Set parameter Threads to value 1

Gurobi 6.0.5 (linux64) logging started Fri Oct  9 15:00:27 2015

Set parameter Presolve to value 2
Set parameter MIPGap to value 0.05
Set parameter OutputFlag to value 1
Set parameter Threads to value 1

Gurobi 6.0.5 (linux64) logging started Fri Oct  9 15:00:28 2015

Set parameter Presolve to value 2
Set parameter MIPGap to value 0.05
Set parameter OutputFlag to value 1
Set parameter Threads to value 1

Gurobi 6.0.5 (linux64) logging started Fri Oct  9 15:02:06 2015

Set parameter Presolve to value 2
Set parameter MIPGap to value 0.05
Set parameter OutputFlag to value 1
Set parameter Threads to value 1

Gurobi 6.0.5 (linux64) logging started Fri Oct  9 15:02:07 2015

Set parameter Presolve to value 2
Set parameter MIPGap to value 0.05
Set parameter OutputFlag to value 1
Set parameter Threads to value 1

Gurobi 6.0.5 (linux64) logging started Fri Oct  9 15:02:44 2015

Set parameter Presolve to value 2
Set parameter MIPGap to value 0.05
Set parameter OutputFlag to value 1
Set parameter Threads to value 1

Gurobi 6.0.5 (linux64) logging started Fri Oct  9 15:02:46 2015

Set parameter Presolve to value 2
Set parameter MIPGap to value 0.05
Set parameter OutputFlag to value 1
Set parameter Threads to value 1

Gurobi 6.0.5 (linux64) logging started Fri Oct  9 15:02:48 2015

Set parameter Presolve to value 2
Set parameter MIPGap to value 0.05
Set parameter OutputFlag to value 1
Set parameter Threads to value 1

Gurobi 6.0.5 (linux64) logging started Fri Oct  9 15:02:55 2015

Set parameter Presolve to value 2
Set parameter MIPGap to value 0.05
Set parameter OutputFlag to value 1
Set parameter Threads to value 1

Gurobi 6.0.5 (linux64) logging started Fri Oct  9 15:04:25 2015

Set parameter Presolve to value 2
Set parameter MIPGap to value 0.05
Set parameter OutputFlag to value 1
Set parameter Threads to value 1

Gurobi 6.0.5 (linux64) logging started Fri Oct  9 15:09:19 2015

Set parameter Presolve to value 2
Set parameter MIPGap to value 0.05
Set parameter OutputFlag to value 1
Set parameter Threads to value 1

Gurobi 6.0.5 (linux64) logging started Fri Oct  9 15:09:22 2015

Set parameter Presolve to value 2
Set parameter MIPGap to value 0.05
Set parameter OutputFlag to value 1
Set parameter Threads to value 1

Gurobi 6.0.5 (linux64) logging started Fri Oct  9 15:11:34 2015

Set parameter Presolve to value 2
Set parameter MIPGap to value 0.05
Set parameter OutputFlag to value 1
Set parameter Threads to value 1

Gurobi 6.0.5 (linux64) logging started Fri Oct  9 15:11:37 2015

Set parameter Presolve to value 2
Set parameter MIPGap to value 0.05
Set parameter OutputFlag to value 1
Set parameter Threads to value 1

Gurobi 6.0.5 (linux64) logging started Fri Oct  9 15:11:37 2015

Set parameter Presolve to value 2
Set parameter MIPGap to value 0.05
Set parameter OutputFlag to value 1
Set parameter Threads to value 1

Gurobi 6.0.5 (linux64) logging started Fri Oct  9 15:11:51 2015

Set parameter Presolve to value 2
Set parameter MIPGap to value 0.05
Set parameter OutputFlag to value 1
Set parameter Threads to value 1

Gurobi 6.0.5 (linux64) logging started Fri Oct  9 15:11:53 2015

Set parameter Presolve to value 2
Set parameter MIPGap to value 0.05
Set parameter OutputFlag to value 1
Set parameter Threads to value 1

Gurobi 6.0.5 (linux64) logging started Fri Oct  9 15:12:30 2015

Set parameter Presolve to value 2
Set parameter MIPGap to value 0.05
Set parameter OutputFlag to value 1
Set parameter Threads to value 1

Gurobi 6.0.5 (linux64) logging started Fri Oct  9 15:12:32 2015

Set parameter Presolve to value 2
Set parameter MIPGap to value 0.05
Set parameter OutputFlag to value 1
Set parameter Threads to value 1

Gurobi 6.0.5 (linux64) logging started Fri Oct  9 16:05:17 2015

Set parameter Presolve to value 2
Set parameter MIPGap to value 0.05
Set parameter OutputFlag to value 1
Set parameter Threads to value 1

Gurobi 6.0.5 (linux64) logging started Fri Oct  9 16:06:49 2015

Set parameter Presolve to value 2
Set parameter MIPGap to value 0.05
Set parameter OutputFlag to value 1
Set parameter Threads to value 1

Gurobi 6.0.5 (linux64) logging started Fri Oct  9 16:08:38 2015

Set parameter Presolve to value 2
Set parameter MIPGap to value 0.05
Set parameter OutputFlag to value 1
Set parameter Threads to value 1

Gurobi 6.0.5 (linux64) logging started Fri Oct  9 16:10:10 2015

Set parameter Presolve to value 2
Set parameter MIPGap to value 0.05
Set parameter OutputFlag to value 1
Set parameter Threads to value 1

Gurobi 6.0.5 (linux64) logging started Fri Oct  9 16:12:27 2015

Set parameter Presolve to value 2
Set parameter MIPGap to value 0.05
Set parameter OutputFlag to value 1
Set parameter Threads to value 1

Gurobi 6.0.5 (linux64) logging started Fri Oct  9 16:14:00 2015

Set parameter Presolve to value 2
Set parameter MIPGap to value 0.05
Set parameter OutputFlag to value 1
Set parameter Threads to value 1

Gurobi 6.0.5 (linux64) logging started Fri Oct  9 16:15:49 2015

Set parameter Presolve to value 2
Set parameter MIPGap to value 0.05
Set parameter OutputFlag to value 1
Set parameter Threads to value 1

Gurobi 6.0.5 (linux64) logging started Fri Oct  9 16:17:55 2015

Set parameter Presolve to value 2
Set parameter MIPGap to value 0.05
Set parameter OutputFlag to value 1
Set parameter Threads to value 1

Gurobi 6.0.5 (linux64) logging started Fri Oct  9 16:18:05 2015

Set parameter Presolve to value 2
Set parameter MIPGap to value 0.05
Set parameter OutputFlag to value 1
Set parameter Threads to value 1

Gurobi 6.0.5 (linux64) logging started Fri Oct  9 16:18:05 2015

Set parameter Presolve to value 2
Set parameter MIPGap to value 0.05
Set parameter OutputFlag to value 1
Set parameter Threads to value 1

Gurobi 6.0.5 (linux64) logging started Fri Oct  9 16:18:06 2015

Set parameter Presolve to value 2
Set parameter MIPGap to value 0.05
Set parameter OutputFlag to value 1
Set parameter Threads to value 1

Gurobi 6.0.5 (linux64) logging started Fri Oct  9 16:19:50 2015

Set parameter Presolve to value 2
Set parameter MIPGap to value 0.05
Set parameter OutputFlag to value 1
Set parameter Threads to value 1

Gurobi 6.0.5 (linux64) logging started Fri Oct  9 16:20:01 2015

Set parameter Presolve to value 2
Set parameter MIPGap to value 0.05
Set parameter OutputFlag to value 1
Set parameter Threads to value 1

Gurobi 6.0.5 (linux64) logging started Fri Oct  9 16:20:03 2015

Set parameter Presolve to value 2
Set parameter MIPGap to value 0.05
Set parameter OutputFlag to value 1
Set parameter Threads to value 1

Gurobi 6.0.5 (linux64) logging started Fri Oct  9 16:20:05 2015

Set parameter Presolve to value 2
Set parameter MIPGap to value 0.05
Set parameter OutputFlag to value 1
Set parameter Threads to value 1

Gurobi 6.0.5 (linux64) logging started Fri Oct  9 16:20:06 2015

Set parameter Presolve to value 2
Set parameter MIPGap to value 0.05
Set parameter OutputFlag to value 1
Set parameter Threads to value 1

Gurobi 6.0.5 (linux64) logging started Fri Oct  9 16:44:34 2015

Set parameter Presolve to value 2
Set parameter MIPGap to value 0.05
Set parameter OutputFlag to value 1
Set parameter Threads to value 1

Gurobi 6.0.5 (linux64) logging started Fri Oct  9 16:44:34 2015

Set parameter Presolve to value 2
Set parameter MIPGap to value 0.05
Set parameter OutputFlag to value 1
Set parameter Threads to value 1

Gurobi 6.0.5 (linux64) logging started Fri Oct  9 16:44:35 2015

Set parameter Presolve to value 2
Set parameter MIPGap to value 0.05
Set parameter OutputFlag to value 1
Set parameter Threads to value 1

Gurobi 6.0.5 (linux64) logging started Fri Oct  9 16:44:41 2015

Set parameter Presolve to value 2
Set parameter MIPGap to value 0.05
Set parameter OutputFlag to value 1
Set parameter Threads to value 1

Gurobi 6.0.5 (linux64) logging started Fri Oct  9 16:45:56 2015

Set parameter Presolve to value 2
Set parameter MIPGap to value 0.05
Set parameter OutputFlag to value 1
Set parameter Threads to value 1

Gurobi 6.0.5 (linux64) logging started Fri Oct  9 17:08:18 2015

Set parameter Presolve to value 2
Set parameter MIPGap to value 0.05
Set parameter OutputFlag to value 1
Set parameter Threads to value 1

Gurobi 6.0.5 (linux64) logging started Fri Oct  9 17:08:22 2015

Set parameter Presolve to value 2
Set parameter MIPGap to value 0.05
Set parameter OutputFlag to value 1
Set parameter Threads to value 1

Gurobi 6.0.5 (linux64) logging started Fri Oct  9 17:12:45 2015

Set parameter Presolve to value 2
Set parameter MIPGap to value 0.05
Set parameter OutputFlag to value 1
Set parameter Threads to value 1

Gurobi 6.0.5 (linux64) logging started Fri Oct  9 17:12:48 2015

Set parameter Presolve to value 2
Set parameter MIPGap to value 0.05
Set parameter OutputFlag to value 1
Set parameter Threads to value 1

Gurobi 6.0.5 (linux64) logging started Fri Oct  9 17:12:59 2015

Set parameter Presolve to value 2
Set parameter MIPGap to value 0.05
Set parameter OutputFlag to value 1
Set parameter Threads to value 1

Gurobi 6.0.5 (linux64) logging started Fri Oct  9 17:13:49 2015

Set parameter Presolve to value 2
Set parameter MIPGap to value 0.05
Set parameter OutputFlag to value 1
Set parameter Threads to value 1

Gurobi 6.0.5 (linux64) logging started Fri Oct  9 17:13:51 2015

Set parameter Presolve to value 2
Set parameter MIPGap to value 0.9
Set parameter OutputFlag to value 1
Set parameter Threads to value 1

Gurobi 6.0.5 (linux64) logging started Fri Oct  9 17:17:53 2015

Set parameter Presolve to value 2
Set parameter MIPGap to value 0.05
Set parameter OutputFlag to value 1
Set parameter Threads to value 1

Gurobi 6.0.5 (linux64) logging started Fri Oct  9 17:17:56 2015

Set parameter Presolve to value 2
Set parameter MIPGap to value 0.9
Set parameter OutputFlag to value 1
Set parameter Threads to value 1

Gurobi 6.0.5 (linux64) logging started Fri Oct  9 17:20:37 2015

Set parameter Presolve to value 2
Set parameter MIPGap to value 0.9
Set parameter OutputFlag to value 1
Set parameter Threads to value 1

Gurobi 6.0.5 (linux64) logging started Fri Oct  9 17:22:22 2015

Set parameter Presolve to value 2
Set parameter MIPGap to value 0.9
Set parameter OutputFlag to value 1
Set parameter Threads to value 1

Gurobi 6.0.5 (linux64) logging started Fri Oct  9 17:22:56 2015

Set parameter Presolve to value 2
Set parameter MIPGap to value 0.05
Set parameter OutputFlag to value 1
Set parameter Threads to value 1

Gurobi 6.0.5 (linux64) logging started Fri Oct  9 17:22:59 2015

Set parameter Presolve to value 2
Set parameter MIPGap to value 0.9
Set parameter OutputFlag to value 1
Set parameter Threads to value 1

Gurobi 6.0.5 (linux64) logging started Fri Oct  9 17:24:36 2015

Set parameter Presolve to value 2
Set parameter MIPGap to value 0.05
Set parameter OutputFlag to value 1
Set parameter Threads to value 1

Gurobi 6.0.5 (linux64) logging started Fri Oct  9 17:24:39 2015

Set parameter Presolve to value 2
Set parameter MIPGap to value 0.9
Set parameter OutputFlag to value 1
Set parameter Threads to value 1

Gurobi 6.0.5 (linux64) logging started Fri Oct  9 17:24:54 2015

Set parameter Presolve to value 2
Set parameter MIPGap to value 0.05
Set parameter OutputFlag to value 1
Set parameter Threads to value 1

Gurobi 6.0.5 (linux64) logging started Fri Oct  9 17:24:56 2015

Set parameter Presolve to value 2
Set parameter MIPGap to value 0.9
Set parameter OutputFlag to value 1
Set parameter Threads to value 1

Gurobi 6.0.5 (linux64) logging started Fri Oct  9 17:25:34 2015

Set parameter Presolve to value 2
Set parameter MIPGap to value 0.05
Set parameter OutputFlag to value 1
Set parameter Threads to value 1

Gurobi 6.0.5 (linux64) logging started Fri Oct  9 17:25:37 2015

Set parameter Presolve to value 2
Set parameter MIPGap to value 0.9
Set parameter OutputFlag to value 1
Set parameter Threads to value 1

Gurobi 6.0.5 (linux64) logging started Fri Oct  9 17:25:37 2015

Set parameter Presolve to value 2
Set parameter MIPGap to value 0.9
Set parameter OutputFlag to value 1
Set parameter Threads to value 1

Gurobi 6.0.5 (linux64) logging started Fri Oct  9 17:25:37 2015

Set parameter Presolve to value 2
Set parameter MIPGap to value 0.9
Set parameter OutputFlag to value 1
Set parameter Threads to value 1

Gurobi 6.0.5 (linux64) logging started Fri Oct  9 17:25:37 2015

Set parameter Presolve to value 2
Set parameter MIPGap to value 0.9
Set parameter OutputFlag to value 1
Set parameter Threads to value 1
